Clp0006I 0  Obj 0 Primal inf 399.99996 (400) Dual inf 1102514 (40000)
Clp0006I 200  Obj -24909 Primal inf 3635 (371)
Clp0006I 294  Obj -9999 Primal inf 1648 (349)
Clp0006I 359  Obj -9999 Primal inf 1730 (341)
Clp0006I 415  Obj -9999 Primal inf 1795 (339)
Clp0006I 508  Obj -9999 Primal inf 1205 (323)
Clp0006I 600  Obj -9999 Primal inf 851.99997 (314)
Clp0006I 672  Obj -9999 Primal inf 693.99997 (297)
Clp0006I 770  Obj -9999 Primal inf 507.99997 (263)
Clp0006I 867  Obj -9999 Primal inf 381.99998 (222)
Clp0006I 948  Obj -9999 Primal inf 326.99998 (196)
Clp0006I 1016  Obj -9996 Primal inf 269.99999 (118)
Clp0006I 1089  Obj -9995 Primal inf 200.99999 (65)
Clp0006I 1152  Obj -9995 Primal inf 50.999996 (43)
Clp0006I 1198  Obj -9995
Clp0000I Optimal - objective value -9995
Clp0000I Optimal - objective value -9995
Node 0 depth 0 unsatisfied 0 sum 0 obj -9995 guess -9995 branching on -1
Clp0000I Optimal - objective value -9995
Cbc0004I Integer solution of -9995 found after 0 iterations and 0 nodes (0.21 seconds)
Cbc0001I Search completed - best objective -9995, took 0 iterations and 0 nodes (0.23 seconds)
Cbc0035I Maximum depth 0, 0 variables fixed on reduced cost
Clp0000I Optimal - objective value -9995
Clp0000I Optimal - objective value -9995
x_124 = 1
x_380 = 1
x_477 = 1
x_767 = 1
x_853 = 1
x_1198 = 1
x_1238 = 1
x_1537 = 1
x_1656 = 1
x_1914 = 1
x_2082 = 1
x_2313 = 1
x_2503 = 1
x_2785 = 1
x_2800 = 1
x_3150 = 1
x_3340 = 1
x_3459 = 1
x_3747 = 1
x_3938 = 1
x_4040 = 1
x_4294 = 1
x_4558 = 1
x_4614 = 1
x_4941 = 1
x_5087 = 1
x_5247 = 1
x_5422 = 1
x_5675 = 1
x_5825 = 1
x_6120 = 1
x_6307 = 1
x_6495 = 1
x_6669 = 1
x_6884 = 1
x_7195 = 1
x_7261 = 1
x_7441 = 1
x_7762 = 1
x_7901 = 1
x_8008 = 1
x_8342 = 1
x_8504 = 1
x_8784 = 1
x_8879 = 1
x_9043 = 1
x_9231 = 1
x_9579 = 1
x_9729 = 1
x_9880 = 1
x_10187 = 1
x_10381 = 1
x_10462 = 1
x_10751 = 1
x_10844 = 1
x_11018 = 1
x_11297 = 1
x_11554 = 1
x_11633 = 1
x_11975 = 1
x_12002 = 1
x_12356 = 1
x_12467 = 1
x_12650 = 1
x_12945 = 1
x_13161 = 1
x_13327 = 1
x_13546 = 1
x_13723 = 1
x_13935 = 1
x_14076 = 1
x_14273 = 1
x_14589 = 1
x_14725 = 1
x_14993 = 1
x_15131 = 1
x_15363 = 1
x_15570 = 1
x_15782 = 1
x_15890 = 1
x_16035 = 1
x_16317 = 1
x_16512 = 1
x_16660 = 1
x_16852 = 1
x_17036 = 1
x_17339 = 1
x_17406 = 1
x_17616 = 1
x_17960 = 1
x_18003 = 1
x_18374 = 1
x_18552 = 1
x_18664 = 1
x_18883 = 1
x_19102 = 1
x_19278 = 1
x_19588 = 1
x_19624 = 1
x_19972 = 1
x_20091 = 1
x_20368 = 1
x_20506 = 1
x_20757 = 1
x_20846 = 1
x_21011 = 1
x_21333 = 1
x_21488 = 1
x_21619 = 1
x_21881 = 1
x_22126 = 1
x_22391 = 1
x_22566 = 1
x_22648 = 1
x_22866 = 1
x_23144 = 1
x_23300 = 1
x_23429 = 1
x_23722 = 1
x_23899 = 1
x_24049 = 1
x_24210 = 1
x_24454 = 1
x_24692 = 1
x_24955 = 1
x_25017 = 1
x_25298 = 1
x_25472 = 1
x_25628 = 1
x_25918 = 1
x_26042 = 1
x_26251 = 1
x_26458 = 1
x_26634 = 1
x_26930 = 1
x_27190 = 1
x_27349 = 1
x_27427 = 1
x_27769 = 1
x_27893 = 1
x_28173 = 1
x_28265 = 1
x_28413 = 1
x_28732 = 1
x_28928 = 1
x_29105 = 1
x_29201 = 1
x_29565 = 1
x_29609 = 1
x_29986 = 1
x_30057 = 1
x_30232 = 1
x_30510 = 1
x_30796 = 1
x_30976 = 1
x_31171 = 1
x_31270 = 1
x_31486 = 1
x_31759 = 1
x_31915 = 1
x_32194 = 1
x_32237 = 1
x_32577 = 1
x_32671 = 1
x_32855 = 1
x_33153 = 1
x_33308 = 1
x_33426 = 1
x_33711 = 1
x_33820 = 1
x_34199 = 1
x_34296 = 1
x_34415 = 1
x_34764 = 1
x_34909 = 1
x_35085 = 1
x_35289 = 1
x_35468 = 1
x_35607 = 1
x_35997 = 1
x_36021 = 1
x_36212 = 1
x_36583 = 1
x_36778 = 1
x_36919 = 1
x_37039 = 1
x_37348 = 1
x_37405 = 1
x_37645 = 1
x_37992 = 1
x_38121 = 1
x_38334 = 1
x_38404 = 1
x_38663 = 1
x_38943 = 1
x_39023 = 1
x_39274 = 1
x_39536 = 1
x_39716 = 1
x_39830 = 1
real 0m0,418s user 0m0,390s sys 0m0,028s
